db/data/74091474016432193482787851562375027093.z3.out
sat
-------------------
90.061438018
